(set-option :pp.decimal true)
(set-option :pp.decimal_precision 7)
(declare-const conc1 Real)
(declare-const conc2 Real)
(declare-const conc3 Real)
(declare-const conc4 Real)
(declare-const conc5 Real)
(declare-const conc6 Real)
(declare-const flow1 Real)
(declare-const flow2 Real)
(declare-const flow3 Real)
(declare-const flow4 Real)
(declare-const flow5 Real)
(assert (> conc1 0))
(assert (> conc2 0))
(assert (> conc3 0))
(assert (> conc4 0))
(assert (> conc5 0))
(assert (> conc6 0))
(assert (= flow1 (+ (* 1 conc1 conc3) (* -1. 0.0153102 conc4))))
(assert (= flow2 (+ (* 0.537217 conc2 conc3) (* -1. 1 conc5))))
(assert (= flow3 (+ (* 1 conc1 conc5) (* -1. 1 conc6))))
(assert (= flow4 (+ (* 0.0082249 conc2 conc4) (* -1. 1 conc6))))
(assert (= flow5 (+ (* 0.00571887 conc3 conc3) (* -1. 1 conc6))))
(assert (= (+ (* -1 flow1) (* -1 flow3) 7.60215 (* -1. 0.131593 conc1)) 0))
(assert (= (+ (* -1 flow2) (* -1 flow4) 0 (* -1. 0.102531 conc2)) 0))
(assert (= (+ (* -1 flow1) (* -1 flow2) (* -2 flow5) 0 (* -1. 0.0848821 conc3)) 0))
(assert (= (+ (* 1 flow1) (* -1 flow4) 0 (* -1. 0.1033 conc4)) 0))
(assert (= (+ (* 1 flow2) (* -1 flow3) 0 (* -1. 0.0655397 conc5)) 0))
(assert (= (+ (* 1 flow3) (* 1 flow4) (* 1 flow5) 0 (* -1. 0.09798 conc6)) 0))
(check-sat)
(get-model)
